c Generated map
c Size: 9 * 9, weights in range: 1 to 10, walls: True, with ratio 0.1
c dim 3 of 8
c
p sp 81 116
c graph contains 81 nodes and 116 arcs
c
a 1 10 8
a 10 1 8
a 1 2 2
a 2 1 2
a 2 11 5
a 11 2 5
a 2 3 7
a 3 2 7
a 3 12 1
a 12 3 1
a 5 14 8
a 14 5 8
a 5 6 6
a 6 5 6
a 6 15 3
a 15 6 3
a 6 7 4
a 7 6 4
a 7 16 8
a 16 7 8
a 9 18 6
a 18 9 6
a 10 19 1
a 19 10 1
a 10 11 10
a 11 10 10
a 11 12 2
a 12 11 2
a 12 21 1
a 21 12 1
a 12 13 10
a 13 12 10
a 13 22 4
a 22 13 4
a 13 14 6
a 14 13 6
a 14 23 6
a 23 14 6
a 14 15 9
a 15 14 9
a 15 24 4
a 24 15 4
a 15 16 1
a 16 15 1
a 16 25 4
a 25 16 4
a 16 17 9
a 17 16 9
a 17 26 6
a 26 17 6
a 17 18 9
a 18 17 9
a 18 27 5
a 27 18 5
a 19 28 4
a 28 19 4
a 21 30 6
a 30 21 6
a 21 22 9
a 22 21 9
a 22 31 10
a 31 22 10
a 22 23 5
a 23 22 5
a 23 24 6
a 24 23 6
a 24 33 1
a 33 24 1
a 24 25 3
a 25 24 3
a 25 34 9
a 34 25 9
a 25 26 7
a 26 25 7
a 26 27 7
a 27 26 7
a 27 36 4
a 36 27 4
a 28 37 2
a 37 28 2
a 30 39 7
a 39 30 7
a 30 31 9
a 31 30 9
a 31 40 7
a 40 31 7
a 33 42 5
a 42 33 5
a 33 34 7
a 34 33 7
a 34 43 9
a 43 34 9
a 36 45 1
a 45 36 1
a 37 46 6
a 46 37 6
a 37 38 10
a 38 37 10
a 38 47 2
a 47 38 2
a 38 39 2
a 39 38 2
a 39 48 4
a 48 39 4
a 39 40 4
a 40 39 4
a 40 49 8
a 49 40 8
a 40 41 8
a 41 40 8
a 41 42 3
a 42 41 3
a 42 51 1
a 51 42 1
a 42 43 7
a 43 42 7
a 43 52 3
a 52 43 3
a 43 44 9
a 44 43 9
a 44 53 9
a 53 44 9
a 44 45 5
a 45 44 5
a 45 54 6
a 54 45 6
a 46 55 9
a 55 46 9
a 46 47 1
a 47 46 1
a 47 56 10
a 56 47 10
a 47 48 6
a 48 47 6
a 48 57 7
a 57 48 7
a 48 49 8
a 49 48 8
a 49 58 2
a 58 49 2
a 51 60 3
a 60 51 3
a 51 52 8
a 52 51 8
a 52 61 2
a 61 52 2
a 52 53 3
a 53 52 3
a 53 62 1
a 62 53 1
a 53 54 7
a 54 53 7
a 54 63 4
a 63 54 4
a 55 64 1
a 64 55 1
a 55 56 4
a 56 55 4
a 56 65 3
a 65 56 3
a 56 57 2
a 57 56 2
a 57 66 5
a 66 57 5
a 57 58 6
a 58 57 6
a 58 67 5
a 67 58 5
a 58 59 3
a 59 58 3
a 59 68 3
a 68 59 3
a 59 60 1
a 60 59 1
a 60 69 8
a 69 60 8
a 60 61 3
a 61 60 3
a 61 70 4
a 70 61 4
a 61 62 4
a 62 61 4
a 62 71 6
a 71 62 6
a 62 63 5
a 63 62 5
a 63 72 3
a 72 63 3
a 64 73 6
a 73 64 6
a 64 65 9
a 65 64 9
a 65 74 9
a 74 65 9
a 65 66 5
a 66 65 5
a 66 75 5
a 75 66 5
a 66 67 4
a 67 66 4
a 67 76 9
a 76 67 9
a 67 68 5
a 68 67 5
a 68 69 5
a 69 68 5
a 69 78 4
a 78 69 4
a 69 70 1
a 70 69 1
a 70 79 3
a 79 70 3
a 70 71 6
a 71 70 6
a 71 80 4
a 80 71 4
a 71 72 7
a 72 71 7
a 72 81 2
a 81 72 2
a 73 74 7
a 74 73 7
a 74 75 6
a 75 74 6
a 75 76 2
a 76 75 2
a 78 79 9
a 79 78 9
a 79 80 6
a 80 79 6
a 80 81 5
a 81 80 5
